NAME: a280
DIMENSION: 16
EDGE_WEIGHT_TYPE: EUC_2D
NODE_COORD_SECTION
1 288 149
2 288 129
3 270 133
4 256 141
5 256 157
6 246 157
7 236 169
8 228 169
9 228 161
10 220 169
11 212 169
12 204 169
13 196 169
14 188 169
15 196 161
16 188 145
ACCEPTED_PROBABILITIES
0.0
0.15
0.5
0.61
0.82
0.89
0.49
0.17
0.1
0.73
0.91
0.33
0.57
0.76
0.18
0.98
OUTSOURCING_COSTS
0.0
1.78
6.33
6.14
4.06
3.36
4.21
1.29
5.5
6.75
1.67
2.95
2.43
0.73
6.28
6.23
